benchmarks/VRPTW/TSPTW/solution/n80w100.005.txt.solution
1 58 46 51 44 16 26 12 34 20 50 73 31 40 39 2 15 37 67 77 70 65 17 21 24 78 19 60 75 47 61 80 6 74 45 9 48 53 43 62 28 22 18 32 54 13 63 55 25 7 8 49 10 33 35 23 79 14 5 68 76 52 4 64 3 59 41 72 29 11 30 71 38 69 27 66 36 56 81 42 57 
532
